NAME : random_4
COMMENT : 50 random nodes
TYPE : TSP
DIMENSION : 50
EDGE_WEIGHT_TYPE : EUC_2D
NODE_COORD_SECTION
1 900 416
2 934 103
3 121 372
4 353 114
5 311 896
6 693 484
7 602 318
8 466 957
9 371 953
10 455 450
11 908 292
12 556 118
13 577 930
14 778 711
15 395 216
16 472 326
17 27 904
18 166 952
19 84 391
20 776 228
21 220 543
22 557 502
23 478 676
24 301 17
25 891 946
26 252 753
27 109 692
28 657 118
29 11 446
30 121 393
31 614 395
32 647 50
33 109 683
34 496 520
35 113 655
36 743 31
37 369 477
38 588 755
39 89 899
40 480 468
41 422 954
42 900 60
43 555 783
44 840 215
45 514 780
46 714 407
47 582 86
48 532 402
49 346 815
50 859 924
EOF